db/data/296032697929855836042722642019422688.z3.out
-------------------
2500.154245111
